c width = 2, time = 0.000449
s td 38 3 40
b 1 2 13 16
b 2 2 15 16
b 3 3 4 26
b 4 3 23 40
b 5 3 23 25
b 6 3 25 26
b 7 4 5 27
b 8 13 16 17
b 9 13 17 24
b 10 17 24 35
b 11 17 18 35
b 12 18 35 36
b 13 18 19 36
b 14 19 36 37
b 15 19 20 37
b 16 20 37 38
b 17 20 21 38
b 18 21 38 39
b 19 21 22 39
b 20 22 39 40
b 21 22 23 40
b 22 4 26 27
b 23 5 6 28
b 24 5 27 28
b 25 6 7 29
b 26 6 28 29
b 27 7 8 30
b 28 7 29 30
b 29 8 9 31
b 30 8 30 31
b 31 9 10 32
b 32 9 31 32
b 33 10 11 33
b 34 10 32 33
b 35 15 2 1
b 36 15 1 14
b 37 33 11 12
b 38 33 12 34
1 2
4 5
1 8
6 5
3 6
3 22
9 8
10 9
11 10
12 11
13 12
14 13
15 14
16 15
17 16
18 17
19 18
20 19
21 20
4 21
7 22
7 24
23 24
23 26
25 26
25 28
27 28
27 30
29 30
29 32
31 32
31 34
33 34
2 35
35 36
33 37
37 38
